25 100
  0     35.0     35.0       0.0      230.0      0.0       0.0       0.0  
  1     41.0     49.0      73.0      204.0     10.0       8.0      10.0  
  2     35.0     17.0      18.0      147.0     10.0      12.0       7.0  
  3     55.0     45.0      76.0      165.0     10.0      26.0      13.0  
  4     55.0     20.0      73.0      195.0     10.0      19.0      19.0  
  5     15.0     30.0      20.0      167.0     10.0      18.0      26.0  
  6     25.0     30.0      49.0      158.0     10.0       5.0       3.0  
  7     20.0     50.0      36.0      135.0     10.0       9.0       5.0  
  8     10.0     43.0      50.0      149.0     10.0      15.0       9.0  
  9     55.0     60.0      47.0      156.0     10.0      13.0      16.0  
 10     30.0     60.0      85.0      172.0     10.0      14.0      16.0  
 11     20.0     65.0      33.0      152.0     10.0       2.0      12.0  
 12     50.0     35.0      15.0      133.0     10.0      25.0      19.0  
 13     30.0     25.0      79.0      208.0     10.0      43.0      23.0  
 14     15.0     10.0      32.0      187.0     10.0       3.0      20.0  
 15     30.0      5.0      30.0      152.0     10.0       1.0       8.0  
 16     10.0     20.0      29.0      139.0     10.0      31.0      19.0  
 17      5.0     30.0      60.0      189.0     10.0       2.0       2.0  
 18     20.0     40.0      47.0      136.0     10.0       6.0      12.0  
 19     15.0     60.0      32.0      146.0     10.0      34.0      17.0  
 20     45.0     65.0      79.0      182.0     10.0      15.0       9.0  
 21     45.0     20.0      18.0      136.0     10.0      13.0      11.0  
 22     45.0     10.0      50.0      153.0     10.0       8.0      18.0  
 23     55.0      5.0      36.0      155.0     10.0      36.0      29.0  
 24     65.0     35.0      58.0      190.0     10.0       4.0       3.0  
 25     65.0     20.0      56.0      186.0     10.0       2.0       6.0  
 26     45.0     30.0      87.0      186.0     10.0      21.0      17.0  
 27     35.0     40.0       5.0      140.0     10.0      12.0      16.0  
 28     41.0     37.0       6.0      136.0     10.0       3.0      16.0  
 29     64.0     42.0      29.0      150.0     10.0       9.0       9.0  
 30     40.0     60.0      25.0      132.0     10.0      24.0      21.0  
 31     31.0     52.0      17.0      138.0     10.0      28.0      27.0  
 32     35.0     69.0      67.0      186.0     10.0      34.0      23.0  
 33     53.0     52.0      24.0      161.0     10.0      22.0      11.0  
 34     65.0     55.0      70.0      173.0     10.0       4.0      14.0  
 35     63.0     65.0      54.0      178.0     10.0       3.0       8.0  
 36      2.0     60.0      41.0      178.0     10.0       9.0       5.0  
 37     20.0     20.0      87.0      190.0     10.0       2.0       8.0  
 38      5.0      5.0      42.0      153.0     10.0      13.0      16.0  
 39     60.0     12.0      33.0      186.0     10.0      61.0      31.0  
 40     40.0     25.0      40.0      139.0     10.0      16.0       9.0  
 41     42.0      7.0      43.0      160.0     10.0       7.0       5.0  
 42     24.0     12.0      25.0      158.0     10.0       6.0       5.0  
 43     23.0      3.0      82.0      185.0     10.0       8.0       7.0  
 44     11.0     14.0      31.0      144.0     10.0       8.0      18.0  
 45      6.0     38.0      29.0      169.0     10.0       9.0      16.0  
 46      2.0     48.0      63.0      180.0     10.0       2.0       1.0  
 47      8.0     56.0      34.0      176.0     10.0      31.0      27.0  
 48     13.0     52.0      65.0      192.0     10.0      30.0      36.0  
 49      6.0     68.0      73.0      152.0     10.0      29.0      30.0  
 50     47.0     47.0      75.0      182.0     10.0      20.0      13.0  
 51     49.0     58.0      36.0      149.0     10.0       4.0      10.0  
 52     27.0     43.0      11.0      133.0     10.0      11.0       9.0  
 53     37.0     31.0      51.0      148.0     10.0       2.0      14.0  
 54     57.0     29.0      90.0      197.0     10.0      11.0      18.0  
 55     63.0     23.0      69.0      189.0     10.0       1.0       2.0  
 56     53.0     12.0      76.0      190.0     10.0       6.0       6.0  
 57     32.0     12.0      48.0      163.0     10.0      12.0       7.0  
 58     36.0     26.0      84.0      210.0     10.0      13.0      18.0  
 59     21.0     24.0      17.0      183.0     10.0      23.0      28.0  
 60     17.0     34.0      70.0      201.0     10.0       6.0       3.0  
 61     12.0     24.0      29.0      132.0     10.0      19.0      13.0  
 62     24.0     58.0      25.0      154.0     10.0      25.0      19.0  
 63     27.0     69.0      34.0      172.0     10.0       2.0      10.0  
 64     15.0     77.0      46.0      165.0     10.0      14.0       9.0  
 65     62.0     77.0      49.0      170.0     10.0      19.0      20.0  
 66     49.0     73.0      68.0      179.0     10.0      45.0      25.0  
 67     67.0      5.0      43.0      156.0     10.0      48.0      25.0  
 68     56.0     39.0      80.0      198.0     10.0      24.0      36.0  
 69     37.0     47.0      12.0      137.0     10.0       3.0       6.0  
 70     37.0     56.0      48.0      198.0     10.0       9.0       5.0  
 71     57.0     68.0      39.0      148.0     10.0      21.0      15.0  
 72     47.0     16.0      22.0      170.0     10.0      45.0      25.0  
 73     44.0     17.0      30.0      135.0     10.0      12.0       9.0  
 74     46.0     13.0      74.0      195.0     10.0       7.0       8.0  
 75     49.0     11.0      27.0      141.0     10.0       2.0      18.0  
 76     49.0     42.0      27.0      128.0     10.0      16.0      13.0  
 77     53.0     43.0      72.0      200.0     10.0       4.0      14.0  
 78     61.0     52.0      42.0      159.0     10.0       6.0       3.0  
 79     57.0     48.0      47.0      146.0     10.0      25.0      23.0  
 80     56.0     37.0      73.0      198.0     10.0       3.0       6.0  
 81     55.0     54.0      57.0      140.0     10.0       7.0      26.0  
 82     15.0     47.0      23.0      146.0     10.0       5.0      16.0  
 83     14.0     37.0      21.0      157.0     10.0      14.0      11.0  
 84     11.0     31.0      57.0      154.0     10.0      11.0       7.0  
 85     16.0     22.0      44.0      147.0     10.0      50.0      41.0  
 86      4.0     18.0      49.0      148.0     10.0      54.0      35.0  
 87     28.0     18.0      61.0      134.0     10.0      12.0      26.0  
 88     26.0     52.0      21.0      136.0     10.0      18.0       9.0  
 89     26.0     35.0      68.0      211.0     10.0      26.0      15.0  
 90     31.0     67.0      46.0      153.0     10.0       5.0       3.0  
 91     15.0     19.0      70.0      194.0     10.0       1.0       1.0  
 92     22.0     22.0      18.0      159.0     10.0       1.0       2.0  
 93     18.0     24.0      60.0      199.0     10.0       2.0      22.0  
 94     26.0     27.0      58.0      151.0     10.0      48.0      27.0  
 95     25.0     24.0      14.0      143.0     10.0       9.0      20.0  
 96     22.0     27.0      89.0      190.0     10.0      21.0      11.0  
 97     25.0     21.0      92.0      183.0     10.0       0.0      12.0  
 98     19.0     21.0      21.0      142.0     10.0       2.0      10.0  
 99     20.0     26.0      33.0      142.0     10.0      10.0       9.0  
 100    18.0     18.0      51.0      195.0     10.0      28.0      17.0  
